endtime = 15;
SERVICE = { S1, S2, S3, S4, S5, S6, S7, S8, S9, S10 };
start =     [0,  0,  0,  7,  3,  5,  6, 10, 11,  12];
end   =     [4,  5,  3, 11,  5,  8,  9, 12, 13,  15];
STYPE = { Gas, Refit, Roof, Solar };
stype =  [ Gas, Refit, Roof, Gas, Solar, Solar, Refit, Roof, Gas, Refit ];
TRUCK = { DD, T1,  T2,  T3,  T4, T5 };
dtruck = DD;
ttype = [ DUMMY, SML, SML, MED, LRG, MED ];
maxsty = [4,4,4,0];

maxmaint = 2;
maintdur = [0,1,3,5];
maxsep = [ 0, 20, 30, 0 ];

minwork = 50;
minservice = 90;

majorwork = 50;
prework = [ 0, 5, 10, 15, 20, 25 ];

